0 59 
1 62 
2 64 
3 66 
4 65 
5 66 
6 64 
7 62 
8 58 
9 57 
10 55 
11 57 
12 55 
13 52 
14 49 
15 47 
16 46 
17 42 
18 40 
19 40 
20 39 
21 36 
22 35 
23 34 
24 33 
25 30 
26 30 
27 27 
28 23 
29 20 
30 18 
31 15 
32 13 
33 10 
34 10 
35 9 
36 12 
37 14 
38 12 
39 11 
40 12 
41 9 
42 9 
43 9 
44 8 
45 7 
46 6 
47 3 
48 2 
49 1 
50 0 
51 0 

